unknown
(model
; cardinality of BoundSet is 2
(declare-sort BoundSet 0)
; rep: @uc_BoundSet_0
; rep: @uc_BoundSet_1
(declare-sort UnboundSet 0)
(define-fun IsBelieveIn ((BOUND_VARIABLE_420 BoundSet)) Bool true)
(define-fun IsGod ((BOUND_VARIABLE_420 BoundSet)) Bool false)
(define-fun IsForever ((BOUND_VARIABLE_420 BoundSet)) Bool false)
(define-fun IsBurnIn ((BOUND_VARIABLE_420 BoundSet)) Bool false)
(define-fun IsInHell ((BOUND_VARIABLE_420 BoundSet)) Bool false)
)
